100
300
239
238
237
237
235
234
234
231
231
228
226
224
220
217
217
215
201
199
194
193
193
192
188
187
187
185
181
181
173
173
171
168
166
165
163
162
161
142
136
134
133
131
131
128
127
127
126
124
123
121
118
113
110
109
106
102
102
101
97
97
96
96
89
87
85
85
83
79
79
78
73
72
70
69
65
65
63
62
58
58
58
57
54
52
51
49
47
45
44
44
43
43
42
42
37
37
37
35
32
31
